n = 28;
lu = [|-626, -347
      |-488, -164
      |-297, 646
      |-735, 232
      |-706, 691
      |-579, -119
      |-108, 258
      |-668, 286
      |176, 630
      |-25, 447
      |-783, 326
      |-526, 762
      |-765, 290
      |210, 712
      |-369, -195
      |-371, 129
      |-618, -100
      |-712, -537
      |-555, 292
      |-458, 706
      |-743, 114
      |-683, 99
      |-706, 353
      |-320, -61
      |-450, 174
      |-150, 707
      |-441, 224
      |310, 728|];
